(declare-const delta_i Int)
(declare-const delta_j Int)
(assert (exists
         ((|S1,0?1_integralized?1| Int) (|j'?2?2| Int) (KSUM1?3?3 Int)
            (|K1,0?4?4| Int) (K?5?5 Int) (|i'?6?6| Int) (|j'?7?7| Int)
            (nj?8?8 Int) (j?9?9 Int) (ni?10?10 Int) (i?11?11 Int))
         (and (<= (- i?11?11) 0) (< (+ (- ni?10?10) i?11?11) 0)
                (<= (- K?5?5) 0) (<= (- |K1,0?4?4|) 0)
                (= (+ |K1,0?4?4| (- K?5?5)) 0) (<= (+ KSUM1?3?3 (- K?5?5)) 0)
                (= (+ (- |S1,0?1_integralized?1|) |j'?2?2| (- |K1,0?4?4|)) 0)
                (= (+ (- KSUM1?3?3) |K1,0?4?4|) 0)
                (= |S1,0?1_integralized?1| 0)
                (or (and (= K?5?5 0) (= (- |j'?2?2|) 0))
                      (and (<= (+ (- K?5?5) 1) 0) (<= (+ (- nj?8?8) 1) 0)
                             (<= (+ (- nj?8?8) |j'?2?2|) 0)
                             (<= (+ (- |j'?2?2|) 1) 0)))
                (= (+ |j'?2?2| (- K?5?5)) 0) (<= (- K?5?5) 0)
                (<= (- |j'?2?2|) 0) (<= (+ nj?8?8 (- |j'?2?2|)) 0)
                (= (+ |j'?7?7| (- |j'?2?2|)) 0)
                (= (+ |i'?6?6| (- i?11?11) -1) 0)
                (= (+ delta_i (- (+ |i'?6?6| (- i?11?11)))) 0)
                (= (+ delta_j (- (+ |j'?7?7| (- j?9?9)))) 0))))